PARAMETER_FILE = even/even_uncomplete_graph_new/nei/par/random172.par
PROBLEM_FILE = even/even_uncomplete_graph_new/nei/mat/random172.tsp
Successes/Runs = 0/10
Cost.min = 967, Cost.avg = 967.00, Cost.max = 967
Gap.min = 0.0000%, Gap.avg = 0.0000%, Gap.max = 0.0000%
Trials.min = 1000, Trials.avg = 1000.0, Trials.max = 1000
Time.min = 1.42 sec., Time.avg = 2.22 sec., Time.max = 3.20 sec.
Time.total = 22.38 sec.
请按任意键继续. . . 
